p cnf 1118 3004
c 223 colorV(2,green)
c 224 colorV(1,green)
c 225 colorV(2,blue)
c 226 colorV(1,blue)
c 227 colorV(2,yellow)
c 228 colorV(1,yellow)
c 229 colorV(55,green)
c 230 colorV(55,blue)
c 231 colorV(55,yellow)
c 232 colorV(4,green)
c 233 colorV(3,green)
c 234 colorV(4,blue)
c 235 colorV(3,blue)
c 236 colorV(4,yellow)
c 237 colorV(3,yellow)
c 238 colorV(42,green)
c 239 colorV(42,blue)
c 240 colorV(42,yellow)
c 241 colorV(23,green)
c 242 colorV(23,blue)
c 243 colorV(23,yellow)
c 244 colorV(25,green)
c 245 colorV(25,blue)
c 246 colorV(25,yellow)
c 247 colorV(6,green)
c 248 colorV(5,green)
c 249 colorV(6,blue)
c 250 colorV(5,blue)
c 251 colorV(6,yellow)
c 252 colorV(5,yellow)
c 253 colorV(8,green)
c 254 colorV(7,green)
c 255 colorV(8,blue)
c 256 colorV(7,blue)
c 257 colorV(8,yellow)
c 258 colorV(7,yellow)
c 259 colorV(21,green)
c 260 colorV(21,blue)
c 261 colorV(21,yellow)
c 262 colorV(10,green)
c 263 colorV(9,green)
c 264 colorV(10,blue)
c 265 colorV(9,blue)
c 266 colorV(10,yellow)
c 267 colorV(9,yellow)
c 268 colorV(47,green)
c 269 colorV(47,blue)
c 270 colorV(47,yellow)
c 271 colorV(12,green)
c 272 colorV(11,green)
c 273 colorV(12,blue)
c 274 colorV(11,blue)
c 275 colorV(12,yellow)
c 276 colorV(11,yellow)
c 277 colorV(30,green)
c 278 colorV(30,blue)
c 279 colorV(30,yellow)
c 280 colorV(36,green)
c 281 colorV(36,blue)
c 282 colorV(36,yellow)
c 283 colorV(14,green)
c 284 colorV(13,green)
c 285 colorV(14,blue)
c 286 colorV(13,blue)
c 287 colorV(14,yellow)
c 288 colorV(13,yellow)
c 289 colorV(28,green)
c 290 colorV(28,blue)
c 291 colorV(28,yellow)
c 292 colorV(16,green)
c 293 colorV(15,green)
c 294 colorV(16,blue)
c 295 colorV(15,blue)
c 296 colorV(16,yellow)
c 297 colorV(15,yellow)
c 298 colorV(18,green)
c 299 colorV(17,green)
c 300 colorV(18,blue)
c 301 colorV(17,blue)
c 302 colorV(18,yellow)
c 303 colorV(17,yellow)
c 304 colorV(20,green)
c 305 colorV(19,green)
c 306 colorV(20,blue)
c 307 colorV(19,blue)
c 308 colorV(20,yellow)
c 309 colorV(19,yellow)
c 310 colorV(22,green)
c 311 colorV(22,blue)
c 312 colorV(22,yellow)
c 313 colorV(33,green)
c 314 colorV(33,blue)
c 315 colorV(33,yellow)
c 316 colorV(24,green)
c 317 colorV(24,blue)
c 318 colorV(24,yellow)
c 319 colorV(54,green)
c 320 colorV(54,blue)
c 321 colorV(54,yellow)
c 322 colorV(27,green)
c 323 colorV(26,green)
c 324 colorV(27,blue)
c 325 colorV(26,blue)
c 326 colorV(27,yellow)
c 327 colorV(26,yellow)
c 328 colorV(41,green)
c 329 colorV(41,blue)
c 330 colorV(41,yellow)
c 331 colorV(29,green)
c 332 colorV(29,blue)
c 333 colorV(29,yellow)
c 334 colorV(43,green)
c 335 colorV(43,blue)
c 336 colorV(43,yellow)
c 337 colorV(32,green)
c 338 colorV(31,green)
c 339 colorV(32,blue)
c 340 colorV(31,blue)
c 341 colorV(32,yellow)
c 342 colorV(31,yellow)
c 343 colorV(35,green)
c 344 colorV(35,blue)
c 345 colorV(35,yellow)
c 346 colorV(45,green)
c 347 colorV(45,blue)
c 348 colorV(45,yellow)
c 349 colorV(34,green)
c 350 colorV(34,blue)
c 351 colorV(34,yellow)
c 352 colorV(37,green)
c 353 colorV(37,blue)
c 354 colorV(37,yellow)
c 355 colorV(39,green)
c 356 colorV(38,green)
c 357 colorV(39,blue)
c 358 colorV(38,blue)
c 359 colorV(39,yellow)
c 360 colorV(38,yellow)
c 361 colorV(40,green)
c 362 colorV(40,blue)
c 363 colorV(40,yellow)
c 364 colorV(44,green)
c 365 colorV(44,blue)
c 366 colorV(44,yellow)
c 367 colorV(53,green)
c 368 colorV(53,blue)
c 369 colorV(53,yellow)
c 370 colorV(52,green)
c 371 colorV(52,blue)
c 372 colorV(52,yellow)
c 373 colorV(46,green)
c 374 colorV(46,blue)
c 375 colorV(46,yellow)
c 376 colorV(50,green)
c 377 colorV(50,blue)
c 378 colorV(50,yellow)
c 379 colorV(48,green)
c 380 colorV(48,blue)
c 381 colorV(48,yellow)
c 382 colorV(49,green)
c 383 colorV(49,blue)
c 384 colorV(49,yellow)
c 385 colorV(51,green)
c 386 colorV(51,blue)
c 387 colorV(51,yellow)
c 388 colorV(56,green)
c 389 colorV(56,blue)
c 390 colorV(56,yellow)
167 0
168 0
169 0
170 0
171 0
172 0
173 0
174 0
175 0
176 0
177 0
178 0
179 0
180 0
181 0
182 0
183 0
184 0
185 0
186 0
187 0
188 0
189 0
190 0
191 0
192 0
193 0
194 0
195 0
196 0
197 0
198 0
199 0
200 0
201 0
202 0
203 0
204 0
205 0
206 0
207 0
208 0
209 0
210 0
211 0
212 0
213 0
214 0
215 0
216 0
217 0
218 0
219 0
220 0
221 0
222 0
-223 -224 0
-225 -226 0
-227 -228 0
-229 -223 0
-230 -225 0
-231 -227 0
-232 -233 0
-234 -235 0
-236 -237 0
-238 -233 0
-239 -235 0
-240 -237 0
-233 -232 0
-235 -234 0
-237 -236 0
-241 -232 0
-242 -234 0
-243 -236 0
-244 -232 0
-245 -234 0
-246 -236 0
-247 -248 0
-249 -250 0
-251 -252 0
-244 -247 0
-245 -249 0
-246 -251 0
-253 -254 0
-255 -256 0
-257 -258 0
-254 -253 0
-256 -255 0
-258 -257 0
-259 -253 0
-260 -255 0
-261 -257 0
-262 -263 0
-264 -265 0
-266 -267 0
-268 -262 0
-269 -264 0
-270 -266 0
-271 -272 0
-273 -274 0
-275 -276 0
-277 -272 0
-278 -274 0
-279 -276 0
-272 -271 0
-274 -273 0
-276 -275 0
-280 -271 0
-281 -273 0
-282 -275 0
-283 -284 0
-285 -286 0
-287 -288 0
-289 -283 0
-290 -285 0
-291 -287 0
-292 -293 0
-294 -295 0
-296 -297 0
-298 -299 0
-300 -301 0
-302 -303 0
-304 -305 0
-306 -307 0
-308 -309 0
-310 -259 0
-311 -260 0
-312 -261 0
-313 -310 0
-314 -311 0
-315 -312 0
-316 -241 0
-317 -242 0
-318 -243 0
-319 -241 0
-320 -242 0
-321 -243 0
-284 -316 0
-286 -317 0
-288 -318 0
-232 -244 0
-234 -245 0
-236 -246 0
-322 -323 0
-324 -325 0
-326 -327 0
-328 -323 0
-329 -325 0
-330 -327 0
-323 -322 0
-325 -324 0
-327 -326 0
-277 -322 0
-278 -324 0
-279 -326 0
-331 -289 0
-332 -290 0
-333 -291 0
-334 -331 0
-335 -332 0
-336 -333 0
-272 -277 0
-274 -278 0
-276 -279 0
-322 -277 0
-324 -278 0
-326 -279 0
-337 -338 0
-339 -340 0
-341 -342 0
-343 -338 0
-344 -340 0
-345 -342 0
-224 -313 0
-226 -314 0
-228 -315 0
-346 -313 0
-347 -314 0
-348 -315 0
-293 -349 0
-295 -350 0
-297 -351 0
-271 -280 0
-273 -281 0
-275 -282 0
-352 -280 0
-353 -281 0
-354 -282 0
-280 -352 0
-281 -353 0
-282 -354 0
-355 -356 0
-357 -358 0
-359 -360 0
-328 -361 0
-329 -362 0
-330 -363 0
-238 -361 0
-239 -362 0
-240 -363 0
-323 -328 0
-325 -329 0
-327 -330 0
-361 -328 0
-362 -329 0
-363 -330 0
-361 -238 0
-362 -239 0
-363 -240 0
-364 -238 0
-365 -239 0
-366 -240 0
-367 -238 0
-368 -239 0
-369 -240 0
-370 -334 0
-371 -335 0
-372 -336 0
-233 -364 0
-235 -365 0
-237 -366 0
-373 -346 0
-374 -347 0
-375 -348 0
-376 -373 0
-377 -374 0
-378 -375 0
-254 -379 0
-256 -380 0
-258 -381 0
-248 -382 0
-250 -383 0
-252 -384 0
-385 -376 0
-386 -377 0
-387 -378 0
-356 -385 0
-358 -386 0
-360 -387 0
-338 -370 0
-340 -371 0
-342 -372 0
-233 -367 0
-235 -368 0
-237 -369 0
-316 -319 0
-317 -320 0
-318 -321 0
-388 -319 0
-389 -320 0
-390 -321 0
-319 -388 0
-320 -389 0
-321 -390 0
-319 -316 0
-320 -317 0
-321 -318 0
-367 -233 0
-368 -235 0
-369 -237 0
-370 -338 0
-371 -340 0
-372 -342 0
-385 -356 0
-386 -358 0
-387 -360 0
-376 -385 0
-377 -386 0
-378 -387 0
-382 -248 0
-383 -250 0
-384 -252 0
-379 -254 0
-380 -256 0
-381 -258 0
-373 -376 0
-374 -377 0
-375 -378 0
-346 -373 0
-347 -374 0
-348 -375 0
-364 -233 0
-365 -235 0
-366 -237 0
-334 -370 0
-335 -371 0
-336 -372 0
-238 -367 0
-239 -368 0
-240 -369 0
-238 -364 0
-239 -365 0
-240 -366 0
-356 -355 0
-358 -357 0
-360 -359 0
-349 -293 0
-350 -295 0
-351 -297 0
-313 -346 0
-314 -347 0
-315 -348 0
-313 -224 0
-314 -226 0
-315 -228 0
-338 -343 0
-340 -344 0
-342 -345 0
-338 -337 0
-340 -339 0
-342 -341 0
-331 -334 0
-332 -335 0
-333 -336 0
-289 -331 0
-290 -332 0
-291 -333 0
-316 -284 0
-317 -286 0
-318 -288 0
-241 -319 0
-242 -320 0
-243 -321 0
-241 -316 0
-242 -317 0
-243 -318 0
-310 -313 0
-311 -314 0
-312 -315 0
-259 -310 0
-260 -311 0
-261 -312 0
-305 -304 0
-307 -306 0
-309 -308 0
-299 -298 0
-301 -300 0
-303 -302 0
-293 -292 0
-295 -294 0
-297 -296 0
-283 -289 0
-285 -290 0
-287 -291 0
-284 -283 0
-286 -285 0
-288 -287 0
-262 -268 0
-264 -269 0
-266 -270 0
-263 -262 0
-265 -264 0
-267 -266 0
-253 -259 0
-255 -260 0
-257 -261 0
-247 -244 0
-249 -245 0
-251 -246 0
-248 -247 0
-250 -249 0
-252 -251 0
-232 -241 0
-234 -242 0
-236 -243 0
-233 -238 0
-235 -239 0
-237 -240 0
-223 -229 0
-225 -230 0
-227 -231 0
-224 -223 0
-226 -225 0
-228 -227 0
559 -167 0
-559 167 0
224 -559 560 0
-224 559 0
-224 -560 0
560 224 0
-560 -224 0
226 -559 561 0
-226 559 0
-226 -561 0
561 226 0
-561 -226 0
228 -559 562 0
-228 559 0
-228 -562 0
562 228 0
-562 -228 0
783 -224 0
-783 224 0
784 -226 0
-784 226 0
785 -228 0
-785 228 0
786 -224 -226 0
-786 224 0
-786 226 0
787 -224 -228 0
-787 224 0
-787 228 0
788 -226 -228 0
-788 226 0
-788 228 0
393 -391 392 0
-393 391 0
-393 -392 0
-167 393 0
563 -168 0
-563 168 0
223 -563 564 0
-223 563 0
-223 -564 0
564 223 0
-564 -223 0
225 -563 565 0
-225 563 0
-225 -565 0
565 225 0
-565 -225 0
227 -563 566 0
-227 563 0
-227 -566 0
566 227 0
-566 -227 0
789 -223 0
-789 223 0
790 -225 0
-790 225 0
791 -227 0
-791 227 0
792 -223 -225 0
-792 223 0
-792 225 0
793 -223 -227 0
-793 223 0
-793 227 0
794 -225 -227 0
-794 225 0
-794 227 0
396 -394 395 0
-396 394 0
-396 -395 0
-168 396 0
567 -169 0
-567 169 0
233 -567 568 0
-233 567 0
-233 -568 0
568 233 0
-568 -233 0
235 -567 569 0
-235 567 0
-235 -569 0
569 235 0
-569 -235 0
237 -567 570 0
-237 567 0
-237 -570 0
570 237 0
-570 -237 0
795 -233 0
-795 233 0
796 -235 0
-796 235 0
797 -237 0
-797 237 0
798 -233 -235 0
-798 233 0
-798 235 0
799 -233 -237 0
-799 233 0
-799 237 0
800 -235 -237 0
-800 235 0
-800 237 0
399 -397 398 0
-399 397 0
-399 -398 0
-169 399 0
571 -170 0
-571 170 0
232 -571 572 0
-232 571 0
-232 -572 0
572 232 0
-572 -232 0
234 -571 573 0
-234 571 0
-234 -573 0
573 234 0
-573 -234 0
236 -571 574 0
-236 571 0
-236 -574 0
574 236 0
-574 -236 0
801 -232 0
-801 232 0
802 -234 0
-802 234 0
803 -236 0
-803 236 0
804 -232 -234 0
-804 232 0
-804 234 0
805 -232 -236 0
-805 232 0
-805 236 0
806 -234 -236 0
-806 234 0
-806 236 0
402 -400 401 0
-402 400 0
-402 -401 0
-170 402 0
575 -171 0
-575 171 0
248 -575 576 0
-248 575 0
-248 -576 0
576 248 0
-576 -248 0
250 -575 577 0
-250 575 0
-250 -577 0
577 250 0
-577 -250 0
252 -575 578 0
-252 575 0
-252 -578 0
578 252 0
-578 -252 0
807 -248 0
-807 248 0
808 -250 0
-808 250 0
809 -252 0
-809 252 0
810 -248 -250 0
-810 248 0
-810 250 0
811 -248 -252 0
-811 248 0
-811 252 0
812 -250 -252 0
-812 250 0
-812 252 0
405 -403 404 0
-405 403 0
-405 -404 0
-171 405 0
579 -172 0
-579 172 0
247 -579 580 0
-247 579 0
-247 -580 0
580 247 0
-580 -247 0
249 -579 581 0
-249 579 0
-249 -581 0
581 249 0
-581 -249 0
251 -579 582 0
-251 579 0
-251 -582 0
582 251 0
-582 -251 0
813 -247 0
-813 247 0
814 -249 0
-814 249 0
815 -251 0
-815 251 0
816 -247 -249 0
-816 247 0
-816 249 0
817 -247 -251 0
-817 247 0
-817 251 0
818 -249 -251 0
-818 249 0
-818 251 0
408 -406 407 0
-408 406 0
-408 -407 0
-172 408 0
583 -173 0
-583 173 0
254 -583 584 0
-254 583 0
-254 -584 0
584 254 0
-584 -254 0
256 -583 585 0
-256 583 0
-256 -585 0
585 256 0
-585 -256 0
258 -583 586 0
-258 583 0
-258 -586 0
586 258 0
-586 -258 0
819 -254 0
-819 254 0
820 -256 0
-820 256 0
821 -258 0
-821 258 0
822 -254 -256 0
-822 254 0
-822 256 0
823 -254 -258 0
-823 254 0
-823 258 0
824 -256 -258 0
-824 256 0
-824 258 0
411 -409 410 0
-411 409 0
-411 -410 0
-173 411 0
587 -174 0
-587 174 0
253 -587 588 0
-253 587 0
-253 -588 0
588 253 0
-588 -253 0
255 -587 589 0
-255 587 0
-255 -589 0
589 255 0
-589 -255 0
257 -587 590 0
-257 587 0
-257 -590 0
590 257 0
-590 -257 0
825 -253 0
-825 253 0
826 -255 0
-826 255 0
827 -257 0
-827 257 0
828 -253 -255 0
-828 253 0
-828 255 0
829 -253 -257 0
-829 253 0
-829 257 0
830 -255 -257 0
-830 255 0
-830 257 0
414 -412 413 0
-414 412 0
-414 -413 0
-174 414 0
591 -175 0
-591 175 0
263 -591 592 0
-263 591 0
-263 -592 0
592 263 0
-592 -263 0
265 -591 593 0
-265 591 0
-265 -593 0
593 265 0
-593 -265 0
267 -591 594 0
-267 591 0
-267 -594 0
594 267 0
-594 -267 0
831 -263 0
-831 263 0
832 -265 0
-832 265 0
833 -267 0
-833 267 0
834 -263 -265 0
-834 263 0
-834 265 0
835 -263 -267 0
-835 263 0
-835 267 0
836 -265 -267 0
-836 265 0
-836 267 0
417 -415 416 0
-417 415 0
-417 -416 0
-175 417 0
595 -176 0
-595 176 0
262 -595 596 0
-262 595 0
-262 -596 0
596 262 0
-596 -262 0
264 -595 597 0
-264 595 0
-264 -597 0
597 264 0
-597 -264 0
266 -595 598 0
-266 595 0
-266 -598 0
598 266 0
-598 -266 0
837 -262 0
-837 262 0
838 -264 0
-838 264 0
839 -266 0
-839 266 0
840 -262 -264 0
-840 262 0
-840 264 0
841 -262 -266 0
-841 262 0
-841 266 0
842 -264 -266 0
-842 264 0
-842 266 0
420 -418 419 0
-420 418 0
-420 -419 0
-176 420 0
599 -177 0
-599 177 0
272 -599 600 0
-272 599 0
-272 -600 0
600 272 0
-600 -272 0
274 -599 601 0
-274 599 0
-274 -601 0
601 274 0
-601 -274 0
276 -599 602 0
-276 599 0
-276 -602 0
602 276 0
-602 -276 0
843 -272 0
-843 272 0
844 -274 0
-844 274 0
845 -276 0
-845 276 0
846 -272 -274 0
-846 272 0
-846 274 0
847 -272 -276 0
-847 272 0
-847 276 0
848 -274 -276 0
-848 274 0
-848 276 0
423 -421 422 0
-423 421 0
-423 -422 0
-177 423 0
603 -178 0
-603 178 0
271 -603 604 0
-271 603 0
-271 -604 0
604 271 0
-604 -271 0
273 -603 605 0
-273 603 0
-273 -605 0
605 273 0
-605 -273 0
275 -603 606 0
-275 603 0
-275 -606 0
606 275 0
-606 -275 0
849 -271 0
-849 271 0
850 -273 0
-850 273 0
851 -275 0
-851 275 0
852 -271 -273 0
-852 271 0
-852 273 0
853 -271 -275 0
-853 271 0
-853 275 0
854 -273 -275 0
-854 273 0
-854 275 0
426 -424 425 0
-426 424 0
-426 -425 0
-178 426 0
607 -179 0
-607 179 0
284 -607 608 0
-284 607 0
-284 -608 0
608 284 0
-608 -284 0
286 -607 609 0
-286 607 0
-286 -609 0
609 286 0
-609 -286 0
288 -607 610 0
-288 607 0
-288 -610 0
610 288 0
-610 -288 0
855 -284 0
-855 284 0
856 -286 0
-856 286 0
857 -288 0
-857 288 0
858 -284 -286 0
-858 284 0
-858 286 0
859 -284 -288 0
-859 284 0
-859 288 0
860 -286 -288 0
-860 286 0
-860 288 0
429 -427 428 0
-429 427 0
-429 -428 0
-179 429 0
611 -180 0
-611 180 0
283 -611 612 0
-283 611 0
-283 -612 0
612 283 0
-612 -283 0
285 -611 613 0
-285 611 0
-285 -613 0
613 285 0
-613 -285 0
287 -611 614 0
-287 611 0
-287 -614 0
614 287 0
-614 -287 0
861 -283 0
-861 283 0
862 -285 0
-862 285 0
863 -287 0
-863 287 0
864 -283 -285 0
-864 283 0
-864 285 0
865 -283 -287 0
-865 283 0
-865 287 0
866 -285 -287 0
-866 285 0
-866 287 0
432 -430 431 0
-432 430 0
-432 -431 0
-180 432 0
615 -181 0
-615 181 0
293 -615 616 0
-293 615 0
-293 -616 0
616 293 0
-616 -293 0
295 -615 617 0
-295 615 0
-295 -617 0
617 295 0
-617 -295 0
297 -615 618 0
-297 615 0
-297 -618 0
618 297 0
-618 -297 0
867 -293 0
-867 293 0
868 -295 0
-868 295 0
869 -297 0
-869 297 0
870 -293 -295 0
-870 293 0
-870 295 0
871 -293 -297 0
-871 293 0
-871 297 0
872 -295 -297 0
-872 295 0
-872 297 0
435 -433 434 0
-435 433 0
-435 -434 0
-181 435 0
619 -182 0
-619 182 0
292 -619 620 0
-292 619 0
-292 -620 0
620 292 0
-620 -292 0
294 -619 621 0
-294 619 0
-294 -621 0
621 294 0
-621 -294 0
296 -619 622 0
-296 619 0
-296 -622 0
622 296 0
-622 -296 0
873 -292 0
-873 292 0
874 -294 0
-874 294 0
875 -296 0
-875 296 0
876 -292 -294 0
-876 292 0
-876 294 0
877 -292 -296 0
-877 292 0
-877 296 0
878 -294 -296 0
-878 294 0
-878 296 0
438 -436 437 0
-438 436 0
-438 -437 0
-182 438 0
623 -183 0
-623 183 0
299 -623 624 0
-299 623 0
-299 -624 0
624 299 0
-624 -299 0
301 -623 625 0
-301 623 0
-301 -625 0
625 301 0
-625 -301 0
303 -623 626 0
-303 623 0
-303 -626 0
626 303 0
-626 -303 0
879 -299 0
-879 299 0
880 -301 0
-880 301 0
881 -303 0
-881 303 0
882 -299 -301 0
-882 299 0
-882 301 0
883 -299 -303 0
-883 299 0
-883 303 0
884 -301 -303 0
-884 301 0
-884 303 0
441 -439 440 0
-441 439 0
-441 -440 0
-183 441 0
627 -184 0
-627 184 0
298 -627 628 0
-298 627 0
-298 -628 0
628 298 0
-628 -298 0
300 -627 629 0
-300 627 0
-300 -629 0
629 300 0
-629 -300 0
302 -627 630 0
-302 627 0
-302 -630 0
630 302 0
-630 -302 0
885 -298 0
-885 298 0
886 -300 0
-886 300 0
887 -302 0
-887 302 0
888 -298 -300 0
-888 298 0
-888 300 0
889 -298 -302 0
-889 298 0
-889 302 0
890 -300 -302 0
-890 300 0
-890 302 0
444 -442 443 0
-444 442 0
-444 -443 0
-184 444 0
631 -185 0
-631 185 0
305 -631 632 0
-305 631 0
-305 -632 0
632 305 0
-632 -305 0
307 -631 633 0
-307 631 0
-307 -633 0
633 307 0
-633 -307 0
309 -631 634 0
-309 631 0
-309 -634 0
634 309 0
-634 -309 0
891 -305 0
-891 305 0
892 -307 0
-892 307 0
893 -309 0
-893 309 0
894 -305 -307 0
-894 305 0
-894 307 0
895 -305 -309 0
-895 305 0
-895 309 0
896 -307 -309 0
-896 307 0
-896 309 0
447 -445 446 0
-447 445 0
-447 -446 0
-185 447 0
635 -186 0
-635 186 0
304 -635 636 0
-304 635 0
-304 -636 0
636 304 0
-636 -304 0
306 -635 637 0
-306 635 0
-306 -637 0
637 306 0
-637 -306 0
308 -635 638 0
-308 635 0
-308 -638 0
638 308 0
-638 -308 0
897 -304 0
-897 304 0
898 -306 0
-898 306 0
899 -308 0
-899 308 0
900 -304 -306 0
-900 304 0
-900 306 0
901 -304 -308 0
-901 304 0
-901 308 0
902 -306 -308 0
-902 306 0
-902 308 0
450 -448 449 0
-450 448 0
-450 -449 0
-186 450 0
639 -187 0
-639 187 0
259 -639 640 0
-259 639 0
-259 -640 0
640 259 0
-640 -259 0
260 -639 641 0
-260 639 0
-260 -641 0
641 260 0
-641 -260 0
261 -639 642 0
-261 639 0
-261 -642 0
642 261 0
-642 -261 0
903 -259 0
-903 259 0
904 -260 0
-904 260 0
905 -261 0
-905 261 0
906 -259 -260 0
-906 259 0
-906 260 0
907 -259 -261 0
-907 259 0
-907 261 0
908 -260 -261 0
-908 260 0
-908 261 0
453 -451 452 0
-453 451 0
-453 -452 0
-187 453 0
643 -188 0
-643 188 0
310 -643 644 0
-310 643 0
-310 -644 0
644 310 0
-644 -310 0
311 -643 645 0
-311 643 0
-311 -645 0
645 311 0
-645 -311 0
312 -643 646 0
-312 643 0
-312 -646 0
646 312 0
-646 -312 0
909 -310 0
-909 310 0
910 -311 0
-910 311 0
911 -312 0
-911 312 0
912 -310 -311 0
-912 310 0
-912 311 0
913 -310 -312 0
-913 310 0
-913 312 0
914 -311 -312 0
-914 311 0
-914 312 0
456 -454 455 0
-456 454 0
-456 -455 0
-188 456 0
647 -189 0
-647 189 0
241 -647 648 0
-241 647 0
-241 -648 0
648 241 0
-648 -241 0
242 -647 649 0
-242 647 0
-242 -649 0
649 242 0
-649 -242 0
243 -647 650 0
-243 647 0
-243 -650 0
650 243 0
-650 -243 0
915 -241 0
-915 241 0
916 -242 0
-916 242 0
917 -243 0
-917 243 0
918 -241 -242 0
-918 241 0
-918 242 0
919 -241 -243 0
-919 241 0
-919 243 0
920 -242 -243 0
-920 242 0
-920 243 0
459 -457 458 0
-459 457 0
-459 -458 0
-189 459 0
651 -190 0
-651 190 0
316 -651 652 0
-316 651 0
-316 -652 0
652 316 0
-652 -316 0
317 -651 653 0
-317 651 0
-317 -653 0
653 317 0
-653 -317 0
318 -651 654 0
-318 651 0
-318 -654 0
654 318 0
-654 -318 0
921 -316 0
-921 316 0
922 -317 0
-922 317 0
923 -318 0
-923 318 0
924 -316 -317 0
-924 316 0
-924 317 0
925 -316 -318 0
-925 316 0
-925 318 0
926 -317 -318 0
-926 317 0
-926 318 0
462 -460 461 0
-462 460 0
-462 -461 0
-190 462 0
655 -191 0
-655 191 0
244 -655 656 0
-244 655 0
-244 -656 0
656 244 0
-656 -244 0
245 -655 657 0
-245 655 0
-245 -657 0
657 245 0
-657 -245 0
246 -655 658 0
-246 655 0
-246 -658 0
658 246 0
-658 -246 0
927 -244 0
-927 244 0
928 -245 0
-928 245 0
929 -246 0
-929 246 0
930 -244 -245 0
-930 244 0
-930 245 0
931 -244 -246 0
-931 244 0
-931 246 0
932 -245 -246 0
-932 245 0
-932 246 0
465 -463 464 0
-465 463 0
-465 -464 0
-191 465 0
659 -192 0
-659 192 0
323 -659 660 0
-323 659 0
-323 -660 0
660 323 0
-660 -323 0
325 -659 661 0
-325 659 0
-325 -661 0
661 325 0
-661 -325 0
327 -659 662 0
-327 659 0
-327 -662 0
662 327 0
-662 -327 0
933 -323 0
-933 323 0
934 -325 0
-934 325 0
935 -327 0
-935 327 0
936 -323 -325 0
-936 323 0
-936 325 0
937 -323 -327 0
-937 323 0
-937 327 0
938 -325 -327 0
-938 325 0
-938 327 0
468 -466 467 0
-468 466 0
-468 -467 0
-192 468 0
663 -193 0
-663 193 0
322 -663 664 0
-322 663 0
-322 -664 0
664 322 0
-664 -322 0
324 -663 665 0
-324 663 0
-324 -665 0
665 324 0
-665 -324 0
326 -663 666 0
-326 663 0
-326 -666 0
666 326 0
-666 -326 0
939 -322 0
-939 322 0
940 -324 0
-940 324 0
941 -326 0
-941 326 0
942 -322 -324 0
-942 322 0
-942 324 0
943 -322 -326 0
-943 322 0
-943 326 0
944 -324 -326 0
-944 324 0
-944 326 0
471 -469 470 0
-471 469 0
-471 -470 0
-193 471 0
667 -194 0
-667 194 0
289 -667 668 0
-289 667 0
-289 -668 0
668 289 0
-668 -289 0
290 -667 669 0
-290 667 0
-290 -669 0
669 290 0
-669 -290 0
291 -667 670 0
-291 667 0
-291 -670 0
670 291 0
-670 -291 0
945 -289 0
-945 289 0
946 -290 0
-946 290 0
947 -291 0
-947 291 0
948 -289 -290 0
-948 289 0
-948 290 0
949 -289 -291 0
-949 289 0
-949 291 0
950 -290 -291 0
-950 290 0
-950 291 0
474 -472 473 0
-474 472 0
-474 -473 0
-194 474 0
671 -195 0
-671 195 0
331 -671 672 0
-331 671 0
-331 -672 0
672 331 0
-672 -331 0
332 -671 673 0
-332 671 0
-332 -673 0
673 332 0
-673 -332 0
333 -671 674 0
-333 671 0
-333 -674 0
674 333 0
-674 -333 0
951 -331 0
-951 331 0
952 -332 0
-952 332 0
953 -333 0
-953 333 0
954 -331 -332 0
-954 331 0
-954 332 0
955 -331 -333 0
-955 331 0
-955 333 0
956 -332 -333 0
-956 332 0
-956 333 0
477 -475 476 0
-477 475 0
-477 -476 0
-195 477 0
675 -196 0
-675 196 0
277 -675 676 0
-277 675 0
-277 -676 0
676 277 0
-676 -277 0
278 -675 677 0
-278 675 0
-278 -677 0
677 278 0
-677 -278 0
279 -675 678 0
-279 675 0
-279 -678 0
678 279 0
-678 -279 0
957 -277 0
-957 277 0
958 -278 0
-958 278 0
959 -279 0
-959 279 0
960 -277 -278 0
-960 277 0
-960 278 0
961 -277 -279 0
-961 277 0
-961 279 0
962 -278 -279 0
-962 278 0
-962 279 0
480 -478 479 0
-480 478 0
-480 -479 0
-196 480 0
679 -197 0
-679 197 0
338 -679 680 0
-338 679 0
-338 -680 0
680 338 0
-680 -338 0
340 -679 681 0
-340 679 0
-340 -681 0
681 340 0
-681 -340 0
342 -679 682 0
-342 679 0
-342 -682 0
682 342 0
-682 -342 0
963 -338 0
-963 338 0
964 -340 0
-964 340 0
965 -342 0
-965 342 0
966 -338 -340 0
-966 338 0
-966 340 0
967 -338 -342 0
-967 338 0
-967 342 0
968 -340 -342 0
-968 340 0
-968 342 0
483 -481 482 0
-483 481 0
-483 -482 0
-197 483 0
683 -198 0
-683 198 0
337 -683 684 0
-337 683 0
-337 -684 0
684 337 0
-684 -337 0
339 -683 685 0
-339 683 0
-339 -685 0
685 339 0
-685 -339 0
341 -683 686 0
-341 683 0
-341 -686 0
686 341 0
-686 -341 0
969 -337 0
-969 337 0
970 -339 0
-970 339 0
971 -341 0
-971 341 0
972 -337 -339 0
-972 337 0
-972 339 0
973 -337 -341 0
-973 337 0
-973 341 0
974 -339 -341 0
-974 339 0
-974 341 0
486 -484 485 0
-486 484 0
-486 -485 0
-198 486 0
687 -199 0
-687 199 0
313 -687 688 0
-313 687 0
-313 -688 0
688 313 0
-688 -313 0
314 -687 689 0
-314 687 0
-314 -689 0
689 314 0
-689 -314 0
315 -687 690 0
-315 687 0
-315 -690 0
690 315 0
-690 -315 0
975 -313 0
-975 313 0
976 -314 0
-976 314 0
977 -315 0
-977 315 0
978 -313 -314 0
-978 313 0
-978 314 0
979 -313 -315 0
-979 313 0
-979 315 0
980 -314 -315 0
-980 314 0
-980 315 0
489 -487 488 0
-489 487 0
-489 -488 0
-199 489 0
691 -200 0
-691 200 0
349 -691 692 0
-349 691 0
-349 -692 0
692 349 0
-692 -349 0
350 -691 693 0
-350 691 0
-350 -693 0
693 350 0
-693 -350 0
351 -691 694 0
-351 691 0
-351 -694 0
694 351 0
-694 -351 0
981 -349 0
-981 349 0
982 -350 0
-982 350 0
983 -351 0
-983 351 0
984 -349 -350 0
-984 349 0
-984 350 0
985 -349 -351 0
-985 349 0
-985 351 0
986 -350 -351 0
-986 350 0
-986 351 0
492 -490 491 0
-492 490 0
-492 -491 0
-200 492 0
695 -201 0
-695 201 0
343 -695 696 0
-343 695 0
-343 -696 0
696 343 0
-696 -343 0
344 -695 697 0
-344 695 0
-344 -697 0
697 344 0
-697 -344 0
345 -695 698 0
-345 695 0
-345 -698 0
698 345 0
-698 -345 0
987 -343 0
-987 343 0
988 -344 0
-988 344 0
989 -345 0
-989 345 0
990 -343 -344 0
-990 343 0
-990 344 0
991 -343 -345 0
-991 343 0
-991 345 0
992 -344 -345 0
-992 344 0
-992 345 0
495 -493 494 0
-495 493 0
-495 -494 0
-201 495 0
699 -202 0
-699 202 0
280 -699 700 0
-280 699 0
-280 -700 0
700 280 0
-700 -280 0
281 -699 701 0
-281 699 0
-281 -701 0
701 281 0
-701 -281 0
282 -699 702 0
-282 699 0
-282 -702 0
702 282 0
-702 -282 0
993 -280 0
-993 280 0
994 -281 0
-994 281 0
995 -282 0
-995 282 0
996 -280 -281 0
-996 280 0
-996 281 0
997 -280 -282 0
-997 280 0
-997 282 0
998 -281 -282 0
-998 281 0
-998 282 0
498 -496 497 0
-498 496 0
-498 -497 0
-202 498 0
703 -203 0
-703 203 0
352 -703 704 0
-352 703 0
-352 -704 0
704 352 0
-704 -352 0
353 -703 705 0
-353 703 0
-353 -705 0
705 353 0
-705 -353 0
354 -703 706 0
-354 703 0
-354 -706 0
706 354 0
-706 -354 0
999 -352 0
-999 352 0
1000 -353 0
-1000 353 0
1001 -354 0
-1001 354 0
1002 -352 -353 0
-1002 352 0
-1002 353 0
1003 -352 -354 0
-1003 352 0
-1003 354 0
1004 -353 -354 0
-1004 353 0
-1004 354 0
501 -499 500 0
-501 499 0
-501 -500 0
-203 501 0
707 -204 0
-707 204 0
356 -707 708 0
-356 707 0
-356 -708 0
708 356 0
-708 -356 0
358 -707 709 0
-358 707 0
-358 -709 0
709 358 0
-709 -358 0
360 -707 710 0
-360 707 0
-360 -710 0
710 360 0
-710 -360 0
1005 -356 0
-1005 356 0
1006 -358 0
-1006 358 0
1007 -360 0
-1007 360 0
1008 -356 -358 0
-1008 356 0
-1008 358 0
1009 -356 -360 0
-1009 356 0
-1009 360 0
1010 -358 -360 0
-1010 358 0
-1010 360 0
504 -502 503 0
-504 502 0
-504 -503 0
-204 504 0
711 -205 0
-711 205 0
355 -711 712 0
-355 711 0
-355 -712 0
712 355 0
-712 -355 0
357 -711 713 0
-357 711 0
-357 -713 0
713 357 0
-713 -357 0
359 -711 714 0
-359 711 0
-359 -714 0
714 359 0
-714 -359 0
1011 -355 0
-1011 355 0
1012 -357 0
-1012 357 0
1013 -359 0
-1013 359 0
1014 -355 -357 0
-1014 355 0
-1014 357 0
1015 -355 -359 0
-1015 355 0
-1015 359 0
1016 -357 -359 0
-1016 357 0
-1016 359 0
507 -505 506 0
-507 505 0
-507 -506 0
-205 507 0
715 -206 0
-715 206 0
361 -715 716 0
-361 715 0
-361 -716 0
716 361 0
-716 -361 0
362 -715 717 0
-362 715 0
-362 -717 0
717 362 0
-717 -362 0
363 -715 718 0
-363 715 0
-363 -718 0
718 363 0
-718 -363 0
1017 -361 0
-1017 361 0
1018 -362 0
-1018 362 0
1019 -363 0
-1019 363 0
1020 -361 -362 0
-1020 361 0
-1020 362 0
1021 -361 -363 0
-1021 361 0
-1021 363 0
1022 -362 -363 0
-1022 362 0
-1022 363 0
510 -508 509 0
-510 508 0
-510 -509 0
-206 510 0
719 -207 0
-719 207 0
328 -719 720 0
-328 719 0
-328 -720 0
720 328 0
-720 -328 0
329 -719 721 0
-329 719 0
-329 -721 0
721 329 0
-721 -329 0
330 -719 722 0
-330 719 0
-330 -722 0
722 330 0
-722 -330 0
1023 -328 0
-1023 328 0
1024 -329 0
-1024 329 0
1025 -330 0
-1025 330 0
1026 -328 -329 0
-1026 328 0
-1026 329 0
1027 -328 -330 0
-1027 328 0
-1027 330 0
1028 -329 -330 0
-1028 329 0
-1028 330 0
513 -511 512 0
-513 511 0
-513 -512 0
-207 513 0
723 -208 0
-723 208 0
238 -723 724 0
-238 723 0
-238 -724 0
724 238 0
-724 -238 0
239 -723 725 0
-239 723 0
-239 -725 0
725 239 0
-725 -239 0
240 -723 726 0
-240 723 0
-240 -726 0
726 240 0
-726 -240 0
1029 -238 0
-1029 238 0
1030 -239 0
-1030 239 0
1031 -240 0
-1031 240 0
1032 -238 -239 0
-1032 238 0
-1032 239 0
1033 -238 -240 0
-1033 238 0
-1033 240 0
1034 -239 -240 0
-1034 239 0
-1034 240 0
516 -514 515 0
-516 514 0
-516 -515 0
-208 516 0
727 -209 0
-727 209 0
334 -727 728 0
-334 727 0
-334 -728 0
728 334 0
-728 -334 0
335 -727 729 0
-335 727 0
-335 -729 0
729 335 0
-729 -335 0
336 -727 730 0
-336 727 0
-336 -730 0
730 336 0
-730 -336 0
1035 -334 0
-1035 334 0
1036 -335 0
-1036 335 0
1037 -336 0
-1037 336 0
1038 -334 -335 0
-1038 334 0
-1038 335 0
1039 -334 -336 0
-1039 334 0
-1039 336 0
1040 -335 -336 0
-1040 335 0
-1040 336 0
519 -517 518 0
-519 517 0
-519 -518 0
-209 519 0
731 -210 0
-731 210 0
364 -731 732 0
-364 731 0
-364 -732 0
732 364 0
-732 -364 0
365 -731 733 0
-365 731 0
-365 -733 0
733 365 0
-733 -365 0
366 -731 734 0
-366 731 0
-366 -734 0
734 366 0
-734 -366 0
1041 -364 0
-1041 364 0
1042 -365 0
-1042 365 0
1043 -366 0
-1043 366 0
1044 -364 -365 0
-1044 364 0
-1044 365 0
1045 -364 -366 0
-1045 364 0
-1045 366 0
1046 -365 -366 0
-1046 365 0
-1046 366 0
522 -520 521 0
-522 520 0
-522 -521 0
-210 522 0
735 -211 0
-735 211 0
346 -735 736 0
-346 735 0
-346 -736 0
736 346 0
-736 -346 0
347 -735 737 0
-347 735 0
-347 -737 0
737 347 0
-737 -347 0
348 -735 738 0
-348 735 0
-348 -738 0
738 348 0
-738 -348 0
1047 -346 0
-1047 346 0
1048 -347 0
-1048 347 0
1049 -348 0
-1049 348 0
1050 -346 -347 0
-1050 346 0
-1050 347 0
1051 -346 -348 0
-1051 346 0
-1051 348 0
1052 -347 -348 0
-1052 347 0
-1052 348 0
525 -523 524 0
-525 523 0
-525 -524 0
-211 525 0
739 -212 0
-739 212 0
373 -739 740 0
-373 739 0
-373 -740 0
740 373 0
-740 -373 0
374 -739 741 0
-374 739 0
-374 -741 0
741 374 0
-741 -374 0
375 -739 742 0
-375 739 0
-375 -742 0
742 375 0
-742 -375 0
1053 -373 0
-1053 373 0
1054 -374 0
-1054 374 0
1055 -375 0
-1055 375 0
1056 -373 -374 0
-1056 373 0
-1056 374 0
1057 -373 -375 0
-1057 373 0
-1057 375 0
1058 -374 -375 0
-1058 374 0
-1058 375 0
528 -526 527 0
-528 526 0
-528 -527 0
-212 528 0
743 -213 0
-743 213 0
268 -743 744 0
-268 743 0
-268 -744 0
744 268 0
-744 -268 0
269 -743 745 0
-269 743 0
-269 -745 0
745 269 0
-745 -269 0
270 -743 746 0
-270 743 0
-270 -746 0
746 270 0
-746 -270 0
1059 -268 0
-1059 268 0
1060 -269 0
-1060 269 0
1061 -270 0
-1061 270 0
1062 -268 -269 0
-1062 268 0
-1062 269 0
1063 -268 -270 0
-1063 268 0
-1063 270 0
1064 -269 -270 0
-1064 269 0
-1064 270 0
531 -529 530 0
-531 529 0
-531 -530 0
-213 531 0
747 -214 0
-747 214 0
379 -747 748 0
-379 747 0
-379 -748 0
748 379 0
-748 -379 0
380 -747 749 0
-380 747 0
-380 -749 0
749 380 0
-749 -380 0
381 -747 750 0
-381 747 0
-381 -750 0
750 381 0
-750 -381 0
1065 -379 0
-1065 379 0
1066 -380 0
-1066 380 0
1067 -381 0
-1067 381 0
1068 -379 -380 0
-1068 379 0
-1068 380 0
1069 -379 -381 0
-1069 379 0
-1069 381 0
1070 -380 -381 0
-1070 380 0
-1070 381 0
534 -532 533 0
-534 532 0
-534 -533 0
-214 534 0
751 -215 0
-751 215 0
382 -751 752 0
-382 751 0
-382 -752 0
752 382 0
-752 -382 0
383 -751 753 0
-383 751 0
-383 -753 0
753 383 0
-753 -383 0
384 -751 754 0
-384 751 0
-384 -754 0
754 384 0
-754 -384 0
1071 -382 0
-1071 382 0
1072 -383 0
-1072 383 0
1073 -384 0
-1073 384 0
1074 -382 -383 0
-1074 382 0
-1074 383 0
1075 -382 -384 0
-1075 382 0
-1075 384 0
1076 -383 -384 0
-1076 383 0
-1076 384 0
537 -535 536 0
-537 535 0
-537 -536 0
-215 537 0
755 -216 0
-755 216 0
376 -755 756 0
-376 755 0
-376 -756 0
756 376 0
-756 -376 0
377 -755 757 0
-377 755 0
-377 -757 0
757 377 0
-757 -377 0
378 -755 758 0
-378 755 0
-378 -758 0
758 378 0
-758 -378 0
1077 -376 0
-1077 376 0
1078 -377 0
-1078 377 0
1079 -378 0
-1079 378 0
1080 -376 -377 0
-1080 376 0
-1080 377 0
1081 -376 -378 0
-1081 376 0
-1081 378 0
1082 -377 -378 0
-1082 377 0
-1082 378 0
540 -538 539 0
-540 538 0
-540 -539 0
-216 540 0
759 -217 0
-759 217 0
385 -759 760 0
-385 759 0
-385 -760 0
760 385 0
-760 -385 0
386 -759 761 0
-386 759 0
-386 -761 0
761 386 0
-761 -386 0
387 -759 762 0
-387 759 0
-387 -762 0
762 387 0
-762 -387 0
1083 -385 0
-1083 385 0
1084 -386 0
-1084 386 0
1085 -387 0
-1085 387 0
1086 -385 -386 0
-1086 385 0
-1086 386 0
1087 -385 -387 0
-1087 385 0
-1087 387 0
1088 -386 -387 0
-1088 386 0
-1088 387 0
543 -541 542 0
-543 541 0
-543 -542 0
-217 543 0
763 -218 0
-763 218 0
370 -763 764 0
-370 763 0
-370 -764 0
764 370 0
-764 -370 0
371 -763 765 0
-371 763 0
-371 -765 0
765 371 0
-765 -371 0
372 -763 766 0
-372 763 0
-372 -766 0
766 372 0
-766 -372 0
1089 -370 0
-1089 370 0
1090 -371 0
-1090 371 0
1091 -372 0
-1091 372 0
1092 -370 -371 0
-1092 370 0
-1092 371 0
1093 -370 -372 0
-1093 370 0
-1093 372 0
1094 -371 -372 0
-1094 371 0
-1094 372 0
546 -544 545 0
-546 544 0
-546 -545 0
-218 546 0
767 -219 0
-767 219 0
367 -767 768 0
-367 767 0
-367 -768 0
768 367 0
-768 -367 0
368 -767 769 0
-368 767 0
-368 -769 0
769 368 0
-769 -368 0
369 -767 770 0
-369 767 0
-369 -770 0
770 369 0
-770 -369 0
1095 -367 0
-1095 367 0
1096 -368 0
-1096 368 0
1097 -369 0
-1097 369 0
1098 -367 -368 0
-1098 367 0
-1098 368 0
1099 -367 -369 0
-1099 367 0
-1099 369 0
1100 -368 -369 0
-1100 368 0
-1100 369 0
549 -547 548 0
-549 547 0
-549 -548 0
-219 549 0
771 -220 0
-771 220 0
319 -771 772 0
-319 771 0
-319 -772 0
772 319 0
-772 -319 0
320 -771 773 0
-320 771 0
-320 -773 0
773 320 0
-773 -320 0
321 -771 774 0
-321 771 0
-321 -774 0
774 321 0
-774 -321 0
1101 -319 0
-1101 319 0
1102 -320 0
-1102 320 0
1103 -321 0
-1103 321 0
1104 -319 -320 0
-1104 319 0
-1104 320 0
1105 -319 -321 0
-1105 319 0
-1105 321 0
1106 -320 -321 0
-1106 320 0
-1106 321 0
552 -550 551 0
-552 550 0
-552 -551 0
-220 552 0
775 -221 0
-775 221 0
229 -775 776 0
-229 775 0
-229 -776 0
776 229 0
-776 -229 0
230 -775 777 0
-230 775 0
-230 -777 0
777 230 0
-777 -230 0
231 -775 778 0
-231 775 0
-231 -778 0
778 231 0
-778 -231 0
1107 -229 0
-1107 229 0
1108 -230 0
-1108 230 0
1109 -231 0
-1109 231 0
1110 -229 -230 0
-1110 229 0
-1110 230 0
1111 -229 -231 0
-1111 229 0
-1111 231 0
1112 -230 -231 0
-1112 230 0
-1112 231 0
555 -553 554 0
-555 553 0
-555 -554 0
-221 555 0
779 -222 0
-779 222 0
388 -779 780 0
-388 779 0
-388 -780 0
780 388 0
-780 -388 0
389 -779 781 0
-389 779 0
-389 -781 0
781 389 0
-781 -389 0
390 -779 782 0
-390 779 0
-390 -782 0
782 390 0
-782 -390 0
1113 -388 0
-1113 388 0
1114 -389 0
-1114 389 0
1115 -390 0
-1115 390 0
1116 -388 -389 0
-1116 388 0
-1116 389 0
1117 -388 -390 0
-1117 388 0
-1117 390 0
1118 -389 -390 0
-1118 389 0
-1118 390 0
558 -556 557 0
-558 556 0
-558 -557 0
-222 558 0
-1 0
-2 0
-3 0
-4 0
-5 0
-6 0
-7 0
-8 0
-9 0
-10 0
-11 0
-12 0
-13 0
-14 0
-15 0
-16 0
-17 0
-18 0
-19 0
-20 0
-21 0
-22 0
-23 0
-24 0
-25 0
-26 0
-27 0
-28 0
-29 0
-30 0
-31 0
-32 0
-33 0
-34 0
-35 0
-36 0
-37 0
-38 0
-39 0
-40 0
-41 0
-42 0
-43 0
-44 0
-45 0
-46 0
-47 0
-48 0
-49 0
-50 0
-51 0
-52 0
-53 0
-54 0
-55 0
-56 0
-57 0
-58 0
-59 0
-60 0
-61 0
-62 0
-63 0
-64 0
-65 0
-66 0
-67 0
-68 0
-69 0
-70 0
-71 0
-72 0
-73 0
-74 0
-75 0
-76 0
-77 0
-78 0
-79 0
-80 0
-81 0
-82 0
-83 0
-84 0
-85 0
-86 0
-87 0
-88 0
-89 0
-90 0
-91 0
-92 0
-93 0
-94 0
-95 0
-96 0
-97 0
-98 0
-99 0
-100 0
-101 0
-102 0
-103 0
-104 0
-105 0
-106 0
-107 0
-108 0
-109 0
-110 0
-111 0
-112 0
-113 0
-114 0
-115 0
-116 0
-117 0
-118 0
-119 0
-120 0
-121 0
-122 0
-123 0
-124 0
-125 0
-126 0
-127 0
-128 0
-129 0
-130 0
-131 0
-132 0
-133 0
-134 0
-135 0
-136 0
-137 0
-138 0
-139 0
-140 0
-141 0
-142 0
-143 0
-144 0
-145 0
-146 0
-147 0
-148 0
-149 0
-150 0
-151 0
-152 0
-153 0
-154 0
-155 0
-156 0
-157 0
-158 0
-159 0
-160 0
-161 0
-162 0
-163 0
-164 0
-165 0
-166 0
-391 783 784 785 0
391 -783 0
391 -784 0
391 -785 0
-392 786 787 788 0
392 -786 0
392 -787 0
392 -788 0
-394 789 790 791 0
394 -789 0
394 -790 0
394 -791 0
-395 792 793 794 0
395 -792 0
395 -793 0
395 -794 0
-397 795 796 797 0
397 -795 0
397 -796 0
397 -797 0
-398 798 799 800 0
398 -798 0
398 -799 0
398 -800 0
-400 801 802 803 0
400 -801 0
400 -802 0
400 -803 0
-401 804 805 806 0
401 -804 0
401 -805 0
401 -806 0
-403 807 808 809 0
403 -807 0
403 -808 0
403 -809 0
-404 810 811 812 0
404 -810 0
404 -811 0
404 -812 0
-406 813 814 815 0
406 -813 0
406 -814 0
406 -815 0
-407 816 817 818 0
407 -816 0
407 -817 0
407 -818 0
-409 819 820 821 0
409 -819 0
409 -820 0
409 -821 0
-410 822 823 824 0
410 -822 0
410 -823 0
410 -824 0
-412 825 826 827 0
412 -825 0
412 -826 0
412 -827 0
-413 828 829 830 0
413 -828 0
413 -829 0
413 -830 0
-415 831 832 833 0
415 -831 0
415 -832 0
415 -833 0
-416 834 835 836 0
416 -834 0
416 -835 0
416 -836 0
-418 837 838 839 0
418 -837 0
418 -838 0
418 -839 0
-419 840 841 842 0
419 -840 0
419 -841 0
419 -842 0
-421 843 844 845 0
421 -843 0
421 -844 0
421 -845 0
-422 846 847 848 0
422 -846 0
422 -847 0
422 -848 0
-424 849 850 851 0
424 -849 0
424 -850 0
424 -851 0
-425 852 853 854 0
425 -852 0
425 -853 0
425 -854 0
-427 855 856 857 0
427 -855 0
427 -856 0
427 -857 0
-428 858 859 860 0
428 -858 0
428 -859 0
428 -860 0
-430 861 862 863 0
430 -861 0
430 -862 0
430 -863 0
-431 864 865 866 0
431 -864 0
431 -865 0
431 -866 0
-433 867 868 869 0
433 -867 0
433 -868 0
433 -869 0
-434 870 871 872 0
434 -870 0
434 -871 0
434 -872 0
-436 873 874 875 0
436 -873 0
436 -874 0
436 -875 0
-437 876 877 878 0
437 -876 0
437 -877 0
437 -878 0
-439 879 880 881 0
439 -879 0
439 -880 0
439 -881 0
-440 882 883 884 0
440 -882 0
440 -883 0
440 -884 0
-442 885 886 887 0
442 -885 0
442 -886 0
442 -887 0
-443 888 889 890 0
443 -888 0
443 -889 0
443 -890 0
-445 891 892 893 0
445 -891 0
445 -892 0
445 -893 0
-446 894 895 896 0
446 -894 0
446 -895 0
446 -896 0
-448 897 898 899 0
448 -897 0
448 -898 0
448 -899 0
-449 900 901 902 0
449 -900 0
449 -901 0
449 -902 0
-451 903 904 905 0
451 -903 0
451 -904 0
451 -905 0
-452 906 907 908 0
452 -906 0
452 -907 0
452 -908 0
-454 909 910 911 0
454 -909 0
454 -910 0
454 -911 0
-455 912 913 914 0
455 -912 0
455 -913 0
455 -914 0
-457 915 916 917 0
457 -915 0
457 -916 0
457 -917 0
-458 918 919 920 0
458 -918 0
458 -919 0
458 -920 0
-460 921 922 923 0
460 -921 0
460 -922 0
460 -923 0
-461 924 925 926 0
461 -924 0
461 -925 0
461 -926 0
-463 927 928 929 0
463 -927 0
463 -928 0
463 -929 0
-464 930 931 932 0
464 -930 0
464 -931 0
464 -932 0
-466 933 934 935 0
466 -933 0
466 -934 0
466 -935 0
-467 936 937 938 0
467 -936 0
467 -937 0
467 -938 0
-469 939 940 941 0
469 -939 0
469 -940 0
469 -941 0
-470 942 943 944 0
470 -942 0
470 -943 0
470 -944 0
-472 945 946 947 0
472 -945 0
472 -946 0
472 -947 0
-473 948 949 950 0
473 -948 0
473 -949 0
473 -950 0
-475 951 952 953 0
475 -951 0
475 -952 0
475 -953 0
-476 954 955 956 0
476 -954 0
476 -955 0
476 -956 0
-478 957 958 959 0
478 -957 0
478 -958 0
478 -959 0
-479 960 961 962 0
479 -960 0
479 -961 0
479 -962 0
-481 963 964 965 0
481 -963 0
481 -964 0
481 -965 0
-482 966 967 968 0
482 -966 0
482 -967 0
482 -968 0
-484 969 970 971 0
484 -969 0
484 -970 0
484 -971 0
-485 972 973 974 0
485 -972 0
485 -973 0
485 -974 0
-487 975 976 977 0
487 -975 0
487 -976 0
487 -977 0
-488 978 979 980 0
488 -978 0
488 -979 0
488 -980 0
-490 981 982 983 0
490 -981 0
490 -982 0
490 -983 0
-491 984 985 986 0
491 -984 0
491 -985 0
491 -986 0
-493 987 988 989 0
493 -987 0
493 -988 0
493 -989 0
-494 990 991 992 0
494 -990 0
494 -991 0
494 -992 0
-496 993 994 995 0
496 -993 0
496 -994 0
496 -995 0
-497 996 997 998 0
497 -996 0
497 -997 0
497 -998 0
-499 999 1000 1001 0
499 -999 0
499 -1000 0
499 -1001 0
-500 1002 1003 1004 0
500 -1002 0
500 -1003 0
500 -1004 0
-502 1005 1006 1007 0
502 -1005 0
502 -1006 0
502 -1007 0
-503 1008 1009 1010 0
503 -1008 0
503 -1009 0
503 -1010 0
-505 1011 1012 1013 0
505 -1011 0
505 -1012 0
505 -1013 0
-506 1014 1015 1016 0
506 -1014 0
506 -1015 0
506 -1016 0
-508 1017 1018 1019 0
508 -1017 0
508 -1018 0
508 -1019 0
-509 1020 1021 1022 0
509 -1020 0
509 -1021 0
509 -1022 0
-511 1023 1024 1025 0
511 -1023 0
511 -1024 0
511 -1025 0
-512 1026 1027 1028 0
512 -1026 0
512 -1027 0
512 -1028 0
-514 1029 1030 1031 0
514 -1029 0
514 -1030 0
514 -1031 0
-515 1032 1033 1034 0
515 -1032 0
515 -1033 0
515 -1034 0
-517 1035 1036 1037 0
517 -1035 0
517 -1036 0
517 -1037 0
-518 1038 1039 1040 0
518 -1038 0
518 -1039 0
518 -1040 0
-520 1041 1042 1043 0
520 -1041 0
520 -1042 0
520 -1043 0
-521 1044 1045 1046 0
521 -1044 0
521 -1045 0
521 -1046 0
-523 1047 1048 1049 0
523 -1047 0
523 -1048 0
523 -1049 0
-524 1050 1051 1052 0
524 -1050 0
524 -1051 0
524 -1052 0
-526 1053 1054 1055 0
526 -1053 0
526 -1054 0
526 -1055 0
-527 1056 1057 1058 0
527 -1056 0
527 -1057 0
527 -1058 0
-529 1059 1060 1061 0
529 -1059 0
529 -1060 0
529 -1061 0
-530 1062 1063 1064 0
530 -1062 0
530 -1063 0
530 -1064 0
-532 1065 1066 1067 0
532 -1065 0
532 -1066 0
532 -1067 0
-533 1068 1069 1070 0
533 -1068 0
533 -1069 0
533 -1070 0
-535 1071 1072 1073 0
535 -1071 0
535 -1072 0
535 -1073 0
-536 1074 1075 1076 0
536 -1074 0
536 -1075 0
536 -1076 0
-538 1077 1078 1079 0
538 -1077 0
538 -1078 0
538 -1079 0
-539 1080 1081 1082 0
539 -1080 0
539 -1081 0
539 -1082 0
-541 1083 1084 1085 0
541 -1083 0
541 -1084 0
541 -1085 0
-542 1086 1087 1088 0
542 -1086 0
542 -1087 0
542 -1088 0
-544 1089 1090 1091 0
544 -1089 0
544 -1090 0
544 -1091 0
-545 1092 1093 1094 0
545 -1092 0
545 -1093 0
545 -1094 0
-547 1095 1096 1097 0
547 -1095 0
547 -1096 0
547 -1097 0
-548 1098 1099 1100 0
548 -1098 0
548 -1099 0
548 -1100 0
-550 1101 1102 1103 0
550 -1101 0
550 -1102 0
550 -1103 0
-551 1104 1105 1106 0
551 -1104 0
551 -1105 0
551 -1106 0
-553 1107 1108 1109 0
553 -1107 0
553 -1108 0
553 -1109 0
-554 1110 1111 1112 0
554 -1110 0
554 -1111 0
554 -1112 0
-556 1113 1114 1115 0
556 -1113 0
556 -1114 0
556 -1115 0
-557 1116 1117 1118 0
557 -1116 0
557 -1117 0
557 -1118 0
